c description: Random 3-CNF over 20 variables and 85 clauses
c generator: CNFgen (0.9.2)
c copyright: (C) 2012-2022 Massimo Lauria <massimo.lauria@uniroma1.it>
c url: https://massimolauria.net/cnfgen
c command line: cnfgen --output CNF_4.28/20_bit_85_756.cnf randkcnf 3 20 85
c
p cnf 20 85
-8 -16 19 0
-3 4 9 0
3 -8 12 0
1 -7 -8 0
-5 -10 -13 0
-1 -7 20 0
-2 6 -10 0
10 -11 -12 0
-1 10 20 0
4 7 -17 0
4 -6 20 0
4 7 13 0
-3 -13 -18 0
-7 -9 19 0
8 11 -17 0
4 -8 12 0
3 16 -20 0
-1 9 15 0
-2 -3 -20 0
-4 -15 -20 0
1 -5 -16 0
6 -11 12 0
-5 -10 16 0
-1 3 9 0
-2 17 -18 0
5 -7 11 0
13 -17 -18 0
2 -9 -16 0
-2 4 -12 0
-1 -9 -16 0
-6 11 -19 0
-12 14 -20 0
9 -10 -17 0
6 13 14 0
-1 15 -18 0
-7 14 17 0
7 -10 -16 0
6 7 -14 0
1 -4 18 0
-2 9 18 0
-7 -8 18 0
3 -4 -7 0
6 -8 -14 0
7 -10 -12 0
-5 12 15 0
-9 12 13 0
4 -10 -16 0
4 -11 -15 0
-4 -14 -20 0
2 -18 19 0
-1 -6 18 0
-3 6 11 0
-8 -11 -18 0
-4 -5 19 0
8 -12 20 0
-5 9 -14 0
11 18 -19 0
-1 13 -16 0
-1 -4 -6 0
7 -8 -11 0
-3 9 10 0
-1 6 20 0
2 -3 -13 0
4 9 -15 0
6 9 -19 0
5 -13 -18 0
1 -2 -16 0
10 13 19 0
13 16 -19 0
4 -13 -16 0
-14 -17 -18 0
1 4 -7 0
4 -15 -18 0
4 11 20 0
3 -16 18 0
1 11 -14 0
-2 14 -16 0
5 7 13 0
6 -12 14 0
13 17 18 0
6 -13 17 0
-1 9 13 0
1 3 -6 0
1 -9 15 0
2 12 17 0
